Minimize
  - 10 y_0 - 4 y_1 - 8 y_2 - 7 y_3 - 7 y_4 - 4 y_5 - 8 y_6 - 7 y_7 - 10 y_8
   - 8 y_9 - 3 y_10 - 8 y_11 - 3 y_13 - 6 y_14 - 5 y_15 - 9 y_16 - 11 y_17
   - 10 y_18 - 4 y_19 - 8 y_20 - 6 y_21 - 11 y_22 - y_23 - 7 y_24 - 5 y_25
   - 2 y_26 - y_27 - y_28 - 7 y_29 - 3 y_30 - 8 y_31 - 9 y_32 - 9 y_33
   - 8 y_34 - 6 y_35 - 6 y_36 - 13 y_37 - 7 y_38 - 8 y_39 - y_40 - 4 y_41
   - 6 y_42 - 11 y_43 - 3 y_44 - 12 y_45 - 9 y_46 - 7 y_47 - 7 y_48
   - 3 y_49 - 9 y_50 - 12 y_51 - 10 y_52 - 5 y_53 - 8 y_54 - 7 y_55
   - 10 y_56 - 6 y_57 - 9 y_58 - 13 y_59 - 9 y_60 - 9 y_61 - 6 y_62
   - 10 y_63 - 5 y_64 - 2 y_65 - 7 y_66 - 10 y_67 - 9 y_68 - 9 y_69
   - 4 y_70 - 11 y_71 - 3 y_72 - 4 y_73 - 6 y_74 - 6 y_75 - 8 y_76
   - 13 y_77 - 5 y_78 - 5 y_79 - 3 y_80 - 2 y_81 - 9 y_82 - 3 y_83
   - 12 y_84 - 4 y_85 - 8 y_86 - 5 y_87 - 12 y_88 - 8 y_89 - 4 y_90
   - 10 y_91 - 7 y_92 - 7 y_93 - y_94 - 5 y_95 - 8 y_96 - 8 y_97 - 9 y_98
   - 6 y_99 + 682 Constant
Subject To
 c_0: y_31 = 1
 c_1_0: y_0 >= 1
 c_1_1: y_1 + y_73 >= 1
 c_1_2: y_2 + y_93 >= 1
 c_1_3: y_3 + y_48 >= 1
 c_1_4: y_4 >= 1
 c_1_5: y_5 + y_70 >= 1
 c_1_6: y_6 + y_96 >= 1
 c_1_7: y_7 >= 1
 c_1_8: y_8 + y_22 >= 1
 c_1_9: y_9 + y_86 >= 1
 c_1_10: y_10 >= 1
 c_1_11: y_11 >= 1
 c_1_12: y_12 + y_94 >= 1
 c_1_13: y_13 + y_19 + y_72 + y_73 >= 1
 c_1_14: y_14 + y_21 + y_74 >= 1
 c_1_15: y_15 >= 1
 c_1_16: y_16 >= 1
 c_1_17: y_17 + y_88 >= 1
 c_1_18: y_18 >= 1
 c_1_19: y_13 + y_19 + y_72 + y_73 >= 1
 c_1_20: y_20 >= 1
 c_1_21: y_14 + y_21 >= 1
 c_1_22: y_8 + y_22 >= 1
 c_1_23: y_23 + y_40 >= 1
 c_1_24: y_24 >= 1
 c_1_25: y_25 + y_85 >= 1
 c_1_26: y_26 >= 1
 c_1_27: y_27 + y_40 >= 1
 c_1_28: y_28 >= 1
 c_1_29: y_29 >= 1
 c_1_30: y_30 + y_44 >= 1
 c_1_31: y_31 + y_34 >= 1
 c_1_32: y_32 >= 1
 c_1_33: y_33 >= 1
 c_1_34: y_31 + y_34 >= 1
 c_1_35: y_35 >= 1
 c_1_36: y_36 >= 1
 c_1_37: y_37 + y_77 >= 1
 c_1_38: y_38 >= 1
 c_1_39: y_39 >= 1
 c_1_40: y_23 + y_27 + y_40 >= 1
 c_1_41: y_41 >= 1
 c_1_42: y_42 >= 1
 c_1_43: y_43 >= 1
 c_1_44: y_30 + y_44 >= 1
 c_1_45: y_45 >= 1
 c_1_46: y_46 + y_60 >= 1
 c_1_47: y_47 + y_55 >= 1
 c_1_48: y_3 + y_48 >= 1
 c_1_49: y_49 >= 1
 c_1_50: y_50 >= 1
 c_1_51: y_51 >= 1
 c_1_52: y_52 >= 1
 c_1_53: y_53 >= 1
 c_1_54: y_54 >= 1
 c_1_55: y_47 + y_55 >= 1
 c_1_56: y_56 >= 1
 c_1_57: y_57 + y_99 >= 1
 c_1_58: y_58 + y_68 + y_97 >= 1
 c_1_59: y_59 + y_77 + y_84 >= 1
 c_1_60: y_46 + y_60 >= 1
 c_1_61: y_61 + y_68 >= 1
 c_1_62: y_62 + y_74 >= 1
 c_1_63: y_63 >= 1
 c_1_64: y_64 >= 1
 c_1_65: y_65 >= 1
 c_1_66: y_66 >= 1
 c_1_67: y_67 >= 1
 c_1_68: y_58 + y_61 + y_68 >= 1
 c_1_69: y_69 >= 1
 c_1_70: y_5 + y_70 >= 1
 c_1_71: y_71 >= 1
 c_1_72: y_13 + y_19 + y_72 + y_83 >= 1
 c_1_73: y_1 + y_13 + y_19 + y_73 >= 1
 c_1_74: y_14 + y_62 + y_74 >= 1
 c_1_75: y_75 >= 1
 c_1_76: y_76 >= 1
 c_1_77: y_37 + y_59 + y_77 >= 1
 c_1_78: y_78 + y_79 + y_95 >= 1
 c_1_79: y_78 + y_79 + y_95 >= 1
 c_1_80: y_80 >= 1
 c_1_81: y_81 >= 1
 c_1_82: y_82 >= 1
 c_1_83: y_72 + y_83 >= 1
 c_1_84: y_59 + y_84 >= 1
 c_1_85: y_25 + y_85 >= 1
 c_1_86: y_9 + y_86 >= 1
 c_1_87: y_87 >= 1
 c_1_88: y_17 + y_88 >= 1
 c_1_89: y_89 >= 1
 c_1_90: y_90 >= 1
 c_1_91: y_91 >= 1
 c_1_92: y_92 >= 1
 c_1_93: y_2 + y_93 >= 1
 c_1_94: y_12 + y_94 >= 1
 c_1_95: y_78 + y_79 + y_95 >= 1
 c_1_96: y_6 + y_96 >= 1
 c_1_97: y_58 + y_97 >= 1
 c_1_98: y_98 >= 1
 c_1_99: y_57 + y_99 >= 1
Bounds
 Constant = 1
Binaries
 y_0 y_1 y_2 y_3 y_4 y_5 y_6 y_7 y_8 y_9 y_10 y_11 y_12 y_13 y_14 y_15 y_16
 y_17 y_18 y_19 y_20 y_21 y_22 y_23 y_24 y_25 y_26 y_27 y_28 y_29 y_30 y_31
 y_32 y_33 y_34 y_35 y_36 y_37 y_38 y_39 y_40 y_41 y_42 y_43 y_44 y_45 y_46
 y_47 y_48 y_49 y_50 y_51 y_52 y_53 y_54 y_55 y_56 y_57 y_58 y_59 y_60 y_61
 y_62 y_63 y_64 y_65 y_66 y_67 y_68 y_69 y_70 y_71 y_72 y_73 y_74 y_75 y_76
 y_77 y_78 y_79 y_80 y_81 y_82 y_83 y_84 y_85 y_86 y_87 y_88 y_89 y_90 y_91
 y_92 y_93 y_94 y_95 y_96 y_97 y_98 y_99
End
